(set-info :Origin "This instance was generated by: BanditFuzz-- an RL fuzzer for SMT solvers" )
(set-info :Author "Joe Scott, Fed Mora, Vijay Ganesh" )
(set-info :Contact "Joe Scott, joseph.scott@uwaterloo.ca")
(set-logic QF_BV)
(declare-const bool_0 Bool)
(declare-const bool_1 Bool)
(declare-const bool_2 Bool)
(declare-const bool_3 Bool)
(declare-const bool_4 Bool)
(declare-const bv_0 (_ BitVec 32))
(declare-const bv_1 (_ BitVec 32))
(declare-const bv_2 (_ BitVec 32))
(declare-const bv_3 (_ BitVec 32))
(declare-const bv_4 (_ BitVec 32))
(assert (or (and (=> bool_4 bool_3) (bvslt #xbcfcd780  #x81a5dad8 )) (bvule (bvsmod bv_2 bv_2) (bvadd #xb280548f  #x9fdd3763 ))))
(assert (or (bvsge (bvlshr #xc32a9ab4  #xb1dde158 ) (bvshl bv_3 bv_2)) (bvsge (bvmul #x568c8ef1  #x8d977856 ) (bvashr #x88d0c748  bv_0))))
(assert (xor (bvugt (bvudiv bv_1 #x30db7a08 ) (bvurem #xc8edc3b0  bv_3)) (or (xor false bool_4) (=> false false))))
(assert (bvsle (bvsdiv (bvmul bv_0 bv_3) (bvsmod bv_1 #x36de6464 )) (bvadd (bvshl #xc48bcfcb  bv_1) (bvsrem bv_3 bv_3))))
(assert (=> (bvugt (bvxor bv_4 bv_0) (bvsrem bv_4 bv_3)) (bvugt (bvor bv_3 #x49efc56e ) (bvadd #x1ad2aa06  #x0dd07041 ))))
(check-sat)
(exit)
